data/processed_heuristic-threshold/instances/1/8/ds_616_courier_435/pairwise.tsp
NAME: ds_616_courier_435
TYPE: TSP
COMMENT: nil
DIMENSION: 9
EDGE_WEIGHT_TYPE: EXPLICIT
EDGE_WEIGHT_FORMAT: FULL_MATRIX
EDGE_WEIGHT_SECTION
9999 1353 998 1217 947 549 1476 1016 1328 
1353 9999 372 224 465 1240 1448 1582 1900 
998 372 9999 225 290 978 1420 1397 1738 
1217 224 225 9999 452 1193 1547 1591 1925 
947 465 290 452 9999 776 1130 1141 1473 
549 1240 978 1193 776 9999 931 511 855 
1476 1448 1420 1547 1130 931 9999 643 713 
1016 1582 1397 1591 1141 511 643 9999 349 
1328 1900 1738 1925 1473 855 713 349 9999 
