data/processed_heuristic-threshold/instances/1/8/ds_616_courier_435/pairwise.sol
9
0 5 7 8 6 4 1 3 2 
